80 8
11 22
9 90
84 2
17 32
67 4
12 28
12 7
45 41
6 7
47 85
30 84
41 83
13 14
79 30
82 70
39 1
80 39
76 37
6 69
19 81
31 21
55 36
60 43
46 23
45 27
56 94
26 50
5 3
50 91
78 11
3 19
34 81
21 65
4 97
69 64
18 98
54 50
69 7
79 19
33 26
65 46
39 59
19 52
2 5
81 48
21 12
81 72
65 46
14 58
20 24
14 77
13 22
37 69
4 15
36 85
65 40
42 86
69 59
42 24
82 1
76 77
8 58
34 89
28 3
59 55
43 82
27 96
35 57
80 98
13 78
57 100
39 5
50 49
16 4
9 94
11 44
24 59
83 74
30 8
57 33
593 701
645 787
520 585
715 829
617 712
417 468
401 473
459 525
